original problem has 3080 variables (100 bin, 0 int, 0 impl, 2980 cont) and 766 constraints
1/1 feasible solution given by solution candidate storage, new primal bound 5.751714e+06

presolving:
(round 1, fast)       1318 del vars, 380 del conss, 0 add conss, 3178 chg bounds, 0 chg sides, 0 chg coeffs, 0 upgd conss, 0 impls, 5 clqs
(round 2, fast)       1338 del vars, 381 del conss, 0 add conss, 3218 chg bounds, 9 chg sides, 0 chg coeffs, 0 upgd conss, 0 impls, 5 clqs
   (0.0s) running MILP presolver
   (0.0s) MILP presolver (2 rounds): 0 aggregations, 0 fixings, 1 bound changes
(round 3, exhaustive) 1338 del vars, 382 del conss, 0 add conss, 3219 chg bounds, 10 chg sides, 0 chg coeffs, 0 upgd conss, 0 impls, 5 clqs
(round 4, exhaustive) 1338 del vars, 382 del conss, 0 add conss, 3219 chg bounds, 10 chg sides, 0 chg coeffs, 43 upgd conss, 0 impls, 5 clqs
(round 5, exhaustive) 1338 del vars, 382 del conss, 0 add conss, 3219 chg bounds, 10 chg sides, 0 chg coeffs, 85 upgd conss, 40 impls, 5 clqs
   (0.1s) probing cycle finished: starting next cycle
presolving (6 rounds: 6 fast, 4 medium, 4 exhaustive):
 1338 deleted vars, 382 deleted constraints, 0 added constraints, 3219 tightened bounds, 0 added holes, 10 changed sides, 0 changed coefficients
 14238 implications, 765 cliques
presolved problem has 1742 variables (100 bin, 0 int, 0 impl, 1642 cont) and 384 constraints
     80 constraints of type <varbound>
      5 constraints of type <setppc>
    299 constraints of type <linear>
Presolving Time: 0.05
transformed 1/1 original solutions to the transformed problem space

 time | node  | left  |LP iter|LP it/n|mem/heur|mdpt |vars |cons |rows |cuts |sepa|confs|strbr|  dualbound   | primalbound  |  gap   | compl. 
  0.1s|     1 |     0 |  1305 |     - |    18M |   0 |1742 | 384 | 384 |   0 |  0 |   0 |   0 | 5.627412e+06 | 5.751714e+06 |   2.21%| unknown
  0.1s|     1 |     2 |  1305 |     - |    18M |   0 |1742 | 384 | 384 |   0 |  1 |   0 |   0 | 5.627412e+06 | 5.751714e+06 |   2.21%| unknown

SCIP Status        : solving was interrupted [node limit reached]
Solving Time (sec) : 0.09
Solving Nodes      : 1
Primal Bound       : +5.75171432890420e+06 (1 solutions)
Dual Bound         : +5.62741228793810e+06
Gap                : 2.21 %
wrote problem to file /mnt/lscratch/users/dferrario/Adaptive-Cutsel-MILP/TransformedInstances/app3__trans__seed__1.mps
